sat
(:added-eqs                   833
 :arith-eq-adapter            95
 :arith-bound-propagations-lp 8
 :arith-conflicts             53
 :arith-diseq                 6
 :arith-fixed-eqs             18
 :arith-gcd-calls             1
 :arith-grobner-calls         2
 :arith-lower                 130
 :arith-make-feasible         101
 :arith-max-columns           1413
 :arith-max-rows              525
 :arith-nla-add-bounds        2
 :arith-nla-lemmas            10
 :arith-nla-propagate-bounds  42
 :arith-nla-propagate-eq      694
 :arith-nra-calls             1
 :arith-offset-eqs            33
 :arith-patches               1
 :arith-patches-success       1
 :arith-upper                 315
 :binary-propagations         467
 :conflicts                   5
 :decisions                   431
 :del-clause                  6
 :final-checks                9
 :max-memory                  62.09
 :memory                      18.44
 :mk-bool-var                 933
 :mk-clause                   124
 :mk-clause-binary            5554
 :nlsat-conflicts             102
 :nlsat-propagations          7488
 :nlsat-stages                7086
 :num-allocs                  30928449
 :num-checks                  1
 :propagations                488
 :rlimit-count                230022
 :sls-arith-steps             9446
 :sls-ddfw-flips              23552.00
 :sls-ddfw-reinits            2
 :sls-ddfw-shifts             5016.00
 :sls-num-guided-search       3
 :sls-repair-down             508
 :sls-repair-up               1085
 :solve-eqs-elim-vars         130
 :solve-eqs-steps             2209
 :time                        0.62
 :total-time                  0.63)
